problems/csplib-prob010/SocialGolfersProblem-models/noch/O2/minion/model_3-ord16-5-4-4-solution000001.eprime-solution
language ESSENCE' 1.0

letting sched_ExplicitR18_PartitionOccurrence_FirstIndex be
        [[1, 5, 9, 13; int(1..4)], [1, 2, 3, 4; int(1..4)], [1, 2, 3, 4; int(1..4)], [1, 2, 3, 4; int(1..4)],
         [1, 2, 3, 4; int(1..4)];
             int(1..5)]
letting sched_ExplicitR18_PartitionOccurrence_NumParts be [4, 4, 4, 4, 4; int(1..5)]
letting sched_ExplicitR18_PartitionOccurrence_PartSizes be
        [[4, 4, 4, 4; int(1..4)], [4, 4, 4, 4; int(1..4)], [4, 4, 4, 4; int(1..4)], [4, 4, 4, 4; int(1..4)],
         [4, 4, 4, 4; int(1..4)];
             int(1..5)]
letting sched_ExplicitR18_PartitionOccurrence_WhichPart be
        [[1, 1, 1, 1, 2, 2, 2, 2, 3, 3, 3, 3, 4, 4, 4, 4; int(1..16)],
         [1, 2, 3, 4, 1, 2, 3, 4, 1, 2, 3, 4, 1, 2, 3, 4; int(1..16)],
         [1, 2, 3, 4, 2, 1, 4, 3, 3, 4, 1, 2, 4, 3, 2, 1; int(1..16)],
         [1, 2, 3, 4, 3, 4, 1, 2, 4, 3, 2, 1, 2, 1, 4, 3; int(1..16)],
         [1, 2, 3, 4, 4, 3, 2, 1, 2, 1, 4, 3, 3, 4, 1, 2; int(1..16)];
             int(1..5)]
